problems/csplib-prob015/SchursLemma-models/noch/O2/lingeling/model_1_3-7-16-solution000001.solution
language Essence 1.3

letting boxes be partition({1, 4}, {2, 7, 8, 11, 12}, {3, 5, 9, 16}, {6, 13}, {10}, {14}, {15})
